results/res_prop_muc/res_Cimatti_mathsat_cores/QF_RDL/fischer9-mutex-10.smt.smt2.res
unsat
( c1000
  c10000
  c10001
  c10003
  c10004
  c10006
  c10007
  c10009
  c10010
  c10019
  c10029
  c10039
  c1004
  c10048
  c10060
  c10072
  c10073
  c10074
  c10075
  c10078
  c10079
  c1008
  c10080
  c10082
  c10083
  c10085
  c10086
  c10088
  c10089
  c10091
  c10092
  c10094
  c10095
  c10097
  c10098
  c101
  c10100
  c10101
  c10110
  c10111
  c1012
  c10124
  c10128
  c10132
  c10136
  c10140
  c10144
  c10148
  c10152
  c10156
  c1016
  c10160
  c10164
  c10168
  c10172
  c10176
  c10180
  c10184
  c10188
  c10192
  c1020
  c1024
  c10336
  c10337
  c10338
  c10339
  c10340
  c10341
  c10342
  c10343
  c10344
  c10345
  c10346
  c10347
  c10348
  c10349
  c10350
  c10351
  c10352
  c10353
  c10363
  c10430
  c10440
  c10450
  c10460
  c10478
  c10487
  c10496
  c105
  c10529
  c10539
  c10549
  c10559
  c10569
  c10578
  c10587
  c10620
  c10630
  c10640
  c10650
  c10660
  c10669
  c10678
  c10711
  c10721
  c10731
  c10741
  c10751
  c10760
  c10769
  c10802
  c10812
  c10822
  c10832
  c10842
  c10851
  c10860
  c10893
  c109
  c10903
  c10913
  c10923
  c10933
  c10942
  c10951
  c10984
  c10994
  c11004
  c11014
  c11024
  c11033
  c11042
  c11075
  c11084
  c11094
  c11103
  c11115
  c11124
  c11133
  c11166
  c11175
  c11185
  c11194
  c11206
  c11215
  c11224
  c11256
  c11257
  c11270
  c11274
  c11278
  c11282
  c11286
  c11290
  c11294
  c11298
  c113
  c11302
  c11306
  c11310
  c11314
  c11318
  c11322
  c11326
  c11330
  c11334
  c11338
  c11482
  c11483
  c11484
  c11485
  c11486
  c11487
  c11488
  c11489
  c11490
  c11491
  c11492
  c11493
  c11494
  c11495
  c11496
  c11497
  c11498
  c11499
  c115
  c11509
  c11511
  c11515
  c11519
  c11523
  c11527
  c11531
  c11535
  c11539
  c11543
  c11546
  c11550
  c11554
  c11558
  c11562
  c11566
  c11570
  c11574
  c11578
  c11583
  c11587
  c11591
  c11595
  c11599
  c11603
  c11607
  c11611
  c11615
  c11619
  c11623
  c11627
  c11631
  c11635
  c11639
  c11643
  c11647
  c11651
  c11654
  c11655
  c11658
  c11659
  c11662
  c11663
  c11666
  c11667
  c11670
  c11671
  c11674
  c11675
  c11678
  c11679
  c1168
  c11682
  c11683
  c11686
  c11687
  c1169
  c11690
  c11691
  c11694
  c11695
  c11698
  c11699
  c117
  c1170
  c11702
  c11703
  c11706
  c11707
  c1171
  c11710
  c11711
  c11714
  c11715
  c11718
  c11719
  c1172
  c11722
  c11723
  c11726
  c11727
  c11728
  c1173
  c11730
  c11731
  c11732
  c11734
  c11735
  c11736
  c11738
  c11739
  c1174
  c11740
  c11742
  c11743
  c11744
  c11746
  c11747
  c11748
  c1175
  c11750
  c11751
  c11752
  c11754
  c11755
  c11756
  c11758
  c11759
  c1176
  c11760
  c11762
  c11763
  c11764
  c11766
  c11767
  c11768
  c1177
  c11770
  c11771
  c11772
  c11774
  c11775
  c11776
  c11778
  c11779
  c1178
  c11780
  c11782
  c11783
  c11784
  c11786
  c11787
  c11788
  c1179
  c11790
  c11791
  c11792
  c11794
  c11795
  c11796
  c11798
  c11799
  c118
  c1180
  c11800
  c11802
  c11803
  c11804
  c11806
  c11807
  c11808
  c1181
  c11810
  c11811
  c11812
  c11814
  c11815
  c11816
  c11818
  c11819
  c1182
  c11820
  c11822
  c11823
  c11824
  c11826
  c11827
  c11828
  c1183
  c11830
  c11831
  c11832
  c11834
  c11835
  c11836
  c11838
  c11839
  c1184
  c11840
  c11842
  c11843
  c11844
  c11846
  c11847
  c11848
  c1185
  c11850
  c11851
  c11852
  c11854
  c11855
  c11856
  c11858
  c11859
  c11860
  c11862
  c11863
  c11864
  c11866
  c11867
  c11868
  c11870
  c11871
  c11872
  c11874
  c11875
  c11876
  c11878
  c11879
  c11880
  c11882
  c11883
  c11884
  c11886
  c11887
  c11888
  c11890
  c11891
  c11892
  c11894
  c11895
  c11896
  c11897
  c11898
  c11899
  c11900
  c11901
  c11903
  c11904
  c11905
  c11906
  c11907
  c11908
  c11909
  c11910
  c11912
  c11913
  c11915
  c11916
  c1195
  c1199
  c1203
  c1207
  c1211
  c1215
  c1219
  c1223
  c1227
  c1231
  c1235
  c1239
  c1243
  c1247
  c1251
  c1255
  c1259
  c1261
  c1262
  c1264
  c1274
  c1277
  c128
  c1282
  c1283
  c1287
  c1290
  c1292
  c1293
  c1301
  c1305
  c1307
  c131
  c1312
  c1313
  c1320
  c1322
  c1328
  c1329
  c1330
  c1331
  c1332
  c1333
  c1334
  c1335
  c1336
  c1337
  c1338
  c1339
  c1340
  c1341
  c1342
  c1343
  c1344
  c1345
  c1346
  c1347
  c1348
  c1349
  c1350
  c1351
  c1352
  c1360
  c1361
  c1363
  c137
  c1373
  c1376
  c1380
  c1381
  c1382
  c1386
  c1389
  c1391
  c1392
  c1398
  c1403
  c1404
  c141
  c1411
  c1413
  c1419
  c1420
  c1421
  c1422
  c1423
  c1424
  c1425
  c1426
  c1427
  c1428
  c1429
  c1430
  c1431
  c1432
  c1433
  c1434
  c1435
  c1436
  c1437
  c1438
  c1439
  c144
  c1440
  c1441
  c1442
  c1443
  c1451
  c1452
  c1454
  c146
  c1464
  c1467
  c147
  c1472
  c1473
  c1477
  c1480
  c1482
  c1483
  c1489
  c1494
  c1495
  c15
  c1502
  c1504
  c1510
  c1511
  c1512
  c1513
  c1514
  c1515
  c1516
  c1517
  c1518
  c1519
  c1520
  c1521
  c1522
  c1523
  c1524
  c1525
  c1526
  c1527
  c1528
  c1529
  c1530
  c1531
  c1532
  c1533
  c1534
  c1542
  c1543
  c1545
  c155
  c1555
  c1558
  c1562
  c1563
  c1564
  c1568
  c1571
  c1573
  c1574
  c1580
  c1585
  c1586
  c159
  c1593
  c1595
  c1601
  c1602
  c1603
  c1604
  c1605
  c1606
  c1607
  c1608
  c1609
  c161
  c1610
  c1611
  c1612
  c1613
  c1614
  c1615
  c1616
  c1617
  c1618
  c1619
  c1620
  c1621
  c1622
  c1623
  c1624
  c1625
  c1633
  c1634
  c1636
  c1646
  c1649
  c1654
  c1655
  c1659
  c166
  c1662
  c1664
  c1665
  c167
  c1671
  c1676
  c1677
  c1684
  c1686
  c1692
  c1693
  c1694
  c1695
  c1696
  c1697
  c1698
  c1699
  c1700
  c1701
  c1702
  c1703
  c1704
  c1705
  c1706
  c1707
  c1708
  c1709
  c1710
  c1711
  c1712
  c1713
  c1714
  c1715
  c1716
  c1724
  c1725
  c1727
  c1737
  c174
  c1740
  c1744
  c1745
  c1746
  c1750
  c1753
  c1755
  c1756
  c176
  c1762
  c1767
  c1768
  c1775
  c1777
  c1783
  c1784
  c1785
  c1786
  c1787
  c1788
  c1789
  c1790
  c1791
  c1792
  c1793
  c1794
  c1795
  c1796
  c1797
  c1798
  c1799
  c1800
  c1801
  c1802
  c1803
  c1804
  c1805
  c1806
  c1807
  c1815
  c1816
  c1818
  c182
  c1828
  c183
  c1831
  c1835
  c1836
  c1837
  c184
  c1841
  c1844
  c1846
  c1847
  c1853
  c1858
  c1859
  c186
  c1866
  c1868
  c187
  c1874
  c1875
  c1876
  c1877
  c1878
  c1879
  c1880
  c1881
  c1882
  c1883
  c1884
  c1885
  c1886
  c1887
  c1888
  c1889
  c189
  c1890
  c1891
  c1892
  c1893
  c1894
  c1895
  c1896
  c1897
  c1898
  c190
  c1906
  c1907
  c1909
  c1919
  c192
  c1922
  c1927
  c1928
  c193
  c1932
  c1935
  c1937
  c1938
  c1944
  c1949
  c195
  c1950
  c1957
  c1959
  c196
  c1965
  c1966
  c1967
  c1968
  c1969
  c1970
  c1971
  c1972
  c1973
  c1974
  c1975
  c1976
  c1977
  c1978
  c1979
  c198
  c1980
  c1981
  c1982
  c1983
  c1984
  c1985
  c1986
  c1987
  c1988
  c1989
  c199
  c1997
  c1998
  c2000
  c201
  c2010
  c2013
  c2018
  c2019
  c202
  c2023
  c2026
  c2028
  c2029
  c2035
  c204
  c2040
  c2041
  c2048
  c205
  c2050
  c2056
  c2057
  c2058
  c2059
  c2060
  c2061
  c2062
  c2063
  c2064
  c2065
  c2066
  c2067
  c2068
  c2069
  c2070
  c2071
  c2072
  c2073
  c2074
  c2075
  c2076
  c2077
  c2078
  c2079
  c2080
  c2088
  c2089
  c2102
  c2106
  c2110
  c2114
  c2118
  c2122
  c2126
  c2130
  c2134
  c2138
  c214
  c2142
  c2146
  c215
  c2150
  c2154
  c2158
  c2162
  c2166
  c217
  c2170
  c22
  c2267
  c2269
  c227
  c2271
  c2273
  c2275
  c2277
  c2279
  c2281
  c2282
  c2289
  c2291
  c2293
  c2295
  c2297
  c2299
  c23
  c230
  c2301
  c2303
  c2304
  c2312
  c2313
  c2314
  c2315
  c2316
  c2317
  c2318
  c2319
  c2320
  c2321
  c2322
  c2323
  c2324
  c2325
  c2326
  c2327
  c2328
  c2329
  c2330
  c2331
  c2332
  c2333
  c2334
  c2335
  c2336
  c2337
  c2338
  c2339
  c2340
  c2341
  c2345
  c2349
  c2353
  c2357
  c236
  c2361
  c2365
  c2369
  c2373
  c2377
  c2381
  c2385
  c2389
  c2393
  c2397
  c24
  c240
  c2401
  c2405
  c2407
  c2408
  c2410
  c2418
  c2420
  c2423
  c2428
  c2429
  c243
  c2433
  c2436
  c2438
  c2439
  c2441
  c2442
  c2447
  c245
  c2451
  c2453
  c2455
  c2458
  c2459
  c2466
  c2468
  c2471
  c2474
  c2475
  c2476
  c2477
  c2478
  c2479
  c248
  c2480
  c2481
  c2482
  c2483
  c2484
  c2485
  c2486
  c2487
  c2488
  c2489
  c2490
  c2491
  c2492
  c2493
  c2494
  c2495
  c2496
  c2497
  c2498
  c25
  c2506
  c2507
  c2509
  c2519
  c252
  c2520
  c2522
  c2526
  c2527
  c2528
  c2532
  c2535
  c2537
  c2538
  c2540
  c2541
  c2544
  c2548
  c2549
  c2550
  c2557
  c2559
  c2562
  c2565
  c2566
  c2567
  c2568
  c2569
  c257
  c2570
  c2571
  c2572
  c2573
  c2574
  c2575
  c2576
  c2577
  c2578
  c2579
  c258
  c2580
  c2581
  c2582
  c2583
  c2584
  c2585
  c2586
  c2587
  c2588
  c2589
  c2597
  c2598
  c26
  c2600
  c2608
  c2610
  c2613
  c2618
  c2619
  c2623
  c2626
  c2628
  c2629
  c2631
  c2632
  c2635
  c2637
  c2640
  c2641
  c2648
  c265
  c2650
  c2653
  c2656
  c2657
  c2658
  c2659
  c2660
  c2661
  c2662
  c2663
  c2664
  c2665
  c2666
  c2667
  c2668
  c2669
  c267
  c2670
  c2671
  c2672
  c2673
  c2674
  c2675
  c2676
  c2677
  c2678
  c2679
  c2680
  c2688
  c2689
  c2691
  c2698
  c2699
  c27
  c2701
  c2704
  c2708
  c2709
  c2710
  c2714
  c2717
  c2719
  c2720
  c2722
  c2723
  c2726
  c273
  c2730
  c2731
  c2732
  c2739
  c274
  c2741
  c2744
  c2747
  c2748
  c2749
  c275
  c2750
  c2751
  c2752
  c2753
  c2754
  c2755
  c2756
  c2757
  c2758
  c2759
  c2760
  c2761
  c2762
  c2763
  c2764
  c2765
  c2766
  c2767
  c2768
  c2769
  c277
  c2770
  c2771
  c2779
  c278
  c2780
  c2782
  c2790
  c2792
  c2795
  c28
  c280
  c2800
  c2801
  c2805
  c2808
  c281
  c2810
  c2811
  c2813
  c2814
  c2817
  c2819
  c2822
  c2823
  c283
  c2830
  c2832
  c2835
  c2838
  c2839
  c284
  c2840
  c2841
  c2842
  c2843
  c2844
  c2845
  c2846
  c2847
  c2848
  c2849
  c2850
  c2851
  c2852
  c2853
  c2854
  c2855
  c2856
  c2857
  c2858
  c2859
  c286
  c2860
  c2861
  c2862
  c287
  c2870
  c2871
  c2872
  c2873
  c2882
  c2883
  c2886
  c289
  c2891
  c2892
  c2896
  c2899
  c29
  c290
  c2901
  c2902
  c2904
  c2905
  c2908
  c2909
  c2913
  c2914
  c2915
  c292
  c2921
  c2923
  c2926
  c2929
  c293
  c2930
  c2931
  c2932
  c2933
  c2934
  c2935
  c2936
  c2937
  c2938
  c2939
  c2940
  c2941
  c2942
  c2943
  c2944
  c2945
  c2946
  c2947
  c2948
  c2949
  c295
  c2950
  c2951
  c2952
  c2953
  c296
  c2961
  c2962
  c2964
  c2971
  c2972
  c2974
  c2977
  c2981
  c2982
  c2983
  c2987
  c2990
  c2992
  c2993
  c2995
  c2996
  c2999
  c30
  c3000
  c3004
  c3005
  c3006
  c3012
  c3014
  c3017
  c3020
  c3021
  c3022
  c3023
  c3024
  c3025
  c3026
  c3027
  c3028
  c3029
  c3030
  c3031
  c3032
  c3033
  c3034
  c3035
  c3036
  c3037
  c3038
  c3039
  c3040
  c3041
  c3042
  c3043
  c3044
  c305
  c3052
  c3053
  c3055
  c3063
  c3065
  c3068
  c307
  c3073
  c3074
  c3078
  c308
  c3081
  c3083
  c3084
  c3086
  c3087
  c3090
  c3092
  c3095
  c3096
  c31
  c3103
  c3105
  c3108
  c3111
  c3112
  c3113
  c3114
  c3115
  c3116
  c3117
  c3118
  c3119
  c3120
  c3121
  c3122
  c3123
  c3124
  c3125
  c3126
  c3127
  c3128
  c3129
  c3130
  c3131
  c3132
  c3133
  c3134
  c3135
  c3143
  c3144
  c3146
  c3154
  c3156
  c3159
  c3164
  c3165
  c3169
  c3172
  c3174
  c3175
  c3177
  c3178
  c318
  c3181
  c3183
  c3186
  c3187
  c3194
  c3196
  c3199
  c32
  c3202
  c3203
  c3204
  c3205
  c3206
  c3207
  c3208
  c3209
  c321
  c3210
  c3211
  c3212
  c3213
  c3214
  c3215
  c3216
  c3217
  c3218
  c3219
  c3220
  c3221
  c3222
  c3223
  c3224
  c3225
  c3226
  c3234
  c3235
  c3248
  c3252
  c3256
  c3260
  c3264
  c3268
  c327
  c3272
  c3276
  c3280
  c3284
  c3288
  c3292
  c3296
  c33
  c3300
  c3304
  c3308
  c331
  c3312
  c3316
  c3317
  c3318
  c3319
  c3320
  c3323
  c3324
  c3325
  c3326
  c3327
  c3328
  c3333
  c3334
  c3335
  c3336
  c3337
  c3338
  c3339
  c334
  c3340
  c3345
  c3346
  c3347
  c3348
  c3349
  c3350
  c3351
  c3352
  c3353
  c3354
  c3359
  c336
  c3360
  c3361
  c3362
  c3363
  c3364
  c3365
  c3366
  c3367
  c3368
  c3369
  c337
  c3370
  c3375
  c3376
  c3377
  c3378
  c3379
  c3380
  c3381
  c3382
  c3383
  c3384
  c3385
  c3387
  c3388
  c3393
  c3394
  c3395
  c3396
  c3397
  c3398
  c3399
  c34
  c3400
  c3401
  c3402
  c3403
  c3404
  c3405
  c3407
  c3408
  c3413
  c3415
  c3417
  c3419
  c3421
  c3423
  c3425
  c3427
  c3428
  c343
  c3435
  c3437
  c3439
  c3441
  c3443
  c3445
  c3447
  c3449
  c3450
  c3458
  c3459
  c3460
  c3461
  c3462
  c3463
  c3464
  c3465
  c3466
  c3467
  c3468
  c3469
  c3470
  c3471
  c3472
  c3473
  c3474
  c3475
  c3476
  c3477
  c3478
  c3479
  c348
  c3480
  c3481
  c3482
  c3483
  c3484
  c3485
  c3486
  c3487
  c349
  c3491
  c3495
  c3499
  c35
  c3503
  c3507
  c3511
  c3515
  c3519
  c3523
  c3527
  c3531
  c3535
  c3539
  c3543
  c3547
  c3551
  c3553
  c3554
  c3555
  c3564
  c3566
  c3569
  c3574
  c3575
  c3579
  c358
  c3582
  c3584
  c3585
  c3587
  c3588
  c3593
  c3597
  c3599
  c36
  c3601
  c3604
  c3605
  c361
  c3612
  c3614
  c3617
  c3620
  c3621
  c3622
  c3623
  c3624
  c3625
  c3626
  c3627
  c3628
  c3629
  c3630
  c3631
  c3632
  c3633
  c3634
  c3635
  c3636
  c3637
  c3638
  c3639
  c364
  c3640
  c3641
  c3642
  c3643
  c3644
  c365
  c3652
  c3653
  c3654
  c366
  c3664
  c3665
  c3668
  c3672
  c3673
  c3674
  c3678
  c368
  c3681
  c3683
  c3684
  c3686
  c3687
  c369
  c3690
  c3691
  c3695
  c3696
  c3697
  c37
  c3703
  c3705
  c3708
  c371
  c3711
  c3712
  c3713
  c3714
  c3715
  c3716
  c3717
  c3718
  c3719
  c372
  c3720
  c3721
  c3722
  c3723
  c3724
  c3725
  c3726
  c3727
  c3728
  c3729
  c3730
  c3731
  c3732
  c3733
  c3734
  c3735
  c374
  c3743
  c3744
  c3746
  c375
  c3754
  c3756
  c3759
  c3764
  c3765
  c3769
  c377
  c3772
  c3774
  c3775
  c3777
  c3778
  c378
  c3781
  c3783
  c3786
  c3787
  c3794
  c3796
  c3799
  c38
  c380
  c3802
  c3803
  c3804
  c3805
  c3806
  c3807
  c3808
  c3809
  c381
  c3810
  c3811
  c3812
  c3813
  c3814
  c3815
  c3816
  c3817
  c3818
  c3819
  c3820
  c3821
  c3822
  c3823
  c3824
  c3825
  c3826
  c383
  c3834
  c3835
  c3837
  c384
  c3844
  c3845
  c3847
  c3850
  c3854
  c3855
  c3856
  c386
  c3860
  c3863
  c3865
  c3866
  c3868
  c3869
  c387
  c3872
  c3873
  c3877
  c3878
  c3879
  c3885
  c3887
  c3890
  c3893
  c3894
  c3895
  c3896
  c3897
  c3898
  c3899
  c39
  c3900
  c3901
  c3902
  c3903
  c3904
  c3905
  c3906
  c3907
  c3908
  c3909
  c3910
  c3911
  c3912
  c3913
  c3914
  c3915
  c3916
  c3917
  c3925
  c3926
  c3927
  c3936
  c3938
  c3941
  c3946
  c3947
  c3951
  c3954
  c3956
  c3957
  c3959
  c396
  c3960
  c3963
  c3965
  c3968
  c3969
  c3976
  c3978
  c398
  c3981
  c3984
  c3985
  c3986
  c3987
  c3988
  c3989
  c399
  c3990
  c3991
  c3992
  c3993
  c3994
  c3995
  c3996
  c3997
  c3998
  c3999
  c4
  c40
  c4000
  c4001
  c4002
  c4003
  c4004
  c4005
  c4006
  c4007
  c4008
  c4016
  c4017
  c4019
  c4027
  c4029
  c4032
  c4037
  c4038
  c4041
  c4042
  c4045
  c4047
  c4048
  c4050
  c4051
  c4054
  c4056
  c4059
  c4060
  c4067
  c4069
  c4072
  c4075
  c4076
  c4077
  c4078
  c4079
  c4080
  c4081
  c4082
  c4083
  c4084
  c4085
  c4086
  c4087
  c4088
  c4089
  c409
  c4090
  c4091
  c4092
  c4093
  c4094
  c4095
  c4096
  c4097
  c4098
  c4099
  c41
  c4107
  c4108
  c4109
  c4117
  c4118
  c412
  c4120
  c4123
  c4127
  c4128
  c4129
  c4133
  c4136
  c4138
  c4139
  c4141
  c4142
  c4145
  c4146
  c4150
  c4151
  c4152
  c4158
  c4160
  c4163
  c4166
  c4167
  c4168
  c4169
  c4170
  c4171
  c4172
  c4173
  c4174
  c4175
  c4176
  c4177
  c4178
  c4179
  c418
  c4180
  c4181
  c4182
  c4183
  c4184
  c4185
  c4186
  c4187
  c4188
  c4189
  c4190
  c4198
  c4199
  c42
  c4200
  c4209
  c4211
  c4214
  c4219
  c422
  c4220
  c4224
  c4227
  c4229
  c4230
  c4232
  c4233
  c4236
  c4238
  c4241
  c4242
  c4249
  c425
  c4251
  c4254
  c4257
  c4258
  c4259
  c4260
  c4261
  c4262
  c4263
  c4264
  c4265
  c4266
  c4267
  c4268
  c4269
  c427
  c4270
  c4271
  c4272
  c4273
  c4274
  c4275
  c4276
  c4277
  c4278
  c4279
  c428
  c4280
  c4281
  c4289
  c4290
  c4291
  c43
  c4300
  c4302
  c4305
  c4310
  c4311
  c4315
  c4318
  c4320
  c4321
  c4323
  c4324
  c4327
  c4329
  c4332
  c4333
  c434
  c4340
  c4342
  c4345
  c4348
  c4349
  c4350
  c4351
  c4352
  c4353
  c4354
  c4355
  c4356
  c4357
  c4358
  c4359
  c4360
  c4361
  c4362
  c4363
  c4364
  c4365
  c4366
  c4367
  c4368
  c4369
  c4370
  c4371
  c4372
  c4380
  c4381
  c439
  c4394
  c4398
  c44
  c440
  c4402
  c4406
  c4410
  c4414
  c4418
  c4422
  c4426
  c4430
  c4434
  c4438
  c4442
  c4446
  c4450
  c4454
  c4458
  c4462
  c449
  c45
  c452
  c455
  c456
  c457
  c459
  c46
  c460
  c4606
  c4607
  c4608
  c4609
  c4610
  c4611
  c4612
  c4613
  c4614
  c4615
  c4616
  c4617
  c4618
  c4619
  c462
  c4620
  c4621
  c4622
  c4623
  c4624
  c4625
  c4626
  c4627
  c4628
  c4629
  c463
  c4630
  c4631
  c4632
  c4633
  c4637
  c4641
  c4645
  c4649
  c465
  c4653
  c4657
  c466
  c4661
  c4665
  c4669
  c4673
  c4677
  c468
  c4681
  c4685
  c4689
  c469
  c4693
  c4697
  c4699
  c47
  c4700
  c4709
  c471
  c4710
  c4712
  c472
  c4720
  c4721
  c4724
  c4725
  c4728
  c4730
  c4731
  c4733
  c4734
  c4739
  c474
  c4743
  c4745
  c4747
  c475
  c4750
  c4751
  c4758
  c4760
  c4762
  c4763
  c4766
  c4767
  c4768
  c4769
  c477
  c4770
  c4771
  c4772
  c4773
  c4774
  c4775
  c4776
  c4777
  c4778
  c4779
  c478
  c4780
  c4781
  c4782
  c4783
  c4784
  c4785
  c4786
  c4787
  c4788
  c4789
  c4790
  c4798
  c4799
  c48
  c4810
  c4811
  c4814
  c4819
  c4820
  c4823
  c4824
  c4827
  c4829
  c4830
  c4832
  c4833
  c4836
  c4837
  c4841
  c4842
  c4843
  c4849
  c4851
  c4853
  c4854
  c4857
  c4858
  c4859
  c4860
  c4861
  c4862
  c4863
  c4864
  c4865
  c4866
  c4867
  c4868
  c4869
  c487
  c4870
  c4871
  c4872
  c4873
  c4874
  c4875
  c4876
  c4877
  c4878
  c4879
  c4880
  c4881
  c4889
  c489
  c4890
  c4899
  c49
  c490
  c4900
  c4902
  c4910
  c4911
  c4915
  c4918
  c4920
  c4921
  c4923
  c4924
  c4927
  c4928
  c4932
  c4933
  c4940
  c4942
  c4944
  c4945
  c4948
  c4949
  c4950
  c4951
  c4952
  c4953
  c4954
  c4955
  c4956
  c4957
  c4958
  c4959
  c4960
  c4961
  c4962
  c4963
  c4964
  c4965
  c4966
  c4967
  c4968
  c4969
  c4970
  c4971
  c4972
  c4980
  c4981
  c4992
  c4993
  c4996
  c500
  c5001
  c5002
  c5006
  c5009
  c5011
  c5012
  c5014
  c5015
  c5018
  c5019
  c5023
  c5024
  c5025
  c503
  c5031
  c5033
  c5035
  c5036
  c5039
  c5040
  c5041
  c5042
  c5043
  c5044
  c5045
  c5046
  c5047
  c5048
  c5049
  c5050
  c5051
  c5052
  c5053
  c5054
  c5055
  c5056
  c5057
  c5058
  c5059
  c5060
  c5061
  c5062
  c5063
  c5071
  c5072
  c5083
  c5084
  c5087
  c509
  c5092
  c5093
  c5096
  c5097
  c5100
  c5102
  c5103
  c5105
  c5106
  c5109
  c5110
  c5114
  c5115
  c5122
  c5124
  c5126
  c5127
  c513
  c5130
  c5131
  c5132
  c5133
  c5134
  c5135
  c5136
  c5137
  c5138
  c5139
  c5140
  c5141
  c5142
  c5143
  c5144
  c5145
  c5146
  c5147
  c5148
  c5149
  c5150
  c5151
  c5152
  c5153
  c5154
  c516
  c5162
  c5163
  c5172
  c5173
  c5175
  c518
  c5183
  c5184
  c5188
  c519
  c5191
  c5193
  c5194
  c5196
  c5197
  c5200
  c5201
  c5205
  c5206
  c5213
  c5215
  c5217
  c5218
  c5221
  c5222
  c5223
  c5224
  c5225
  c5226
  c5227
  c5228
  c5229
  c5230
  c5231
  c5232
  c5233
  c5234
  c5235
  c5236
  c5237
  c5238
  c5239
  c5240
  c5241
  c5242
  c5243
  c5244
  c5245
  c525
  c5253
  c5254
  c5265
  c5266
  c5269
  c5274
  c5275
  c5278
  c5279
  c5282
  c5284
  c5285
  c5287
  c5288
  c5291
  c5292
  c5296
  c5297
  c5298
  c53
  c530
  c5304
  c5306
  c5308
  c5309
  c531
  c5312
  c5313
  c5314
  c5315
  c5316
  c5317
  c5318
  c5319
  c5320
  c5321
  c5322
  c5323
  c5324
  c5325
  c5326
  c5327
  c5328
  c5329
  c5330
  c5331
  c5332
  c5333
  c5334
  c5335
  c5336
  c5344
  c5345
  c5354
  c5356
  c5357
  c5365
  c5366
  c5369
  c5370
  c5373
  c5375
  c5376
  c5378
  c5379
  c538
  c5382
  c5384
  c5387
  c5388
  c5395
  c5397
  c5399
  c540
  c5400
  c5403
  c5404
  c5405
  c5406
  c5407
  c5408
  c5409
  c5410
  c5411
  c5412
  c5413
  c5414
  c5415
  c5416
  c5417
  c5418
  c5419
  c5420
  c5421
  c5422
  c5423
  c5424
  c5425
  c5426
  c5427
  c5435
  c5436
  c5445
  c5446
  c5448
  c5456
  c5457
  c546
  c5460
  c5461
  c5464
  c5466
  c5467
  c5469
  c547
  c5470
  c5473
  c5475
  c5478
  c5479
  c548
  c5486
  c5488
  c5490
  c5491
  c5494
  c5495
  c5496
  c5497
  c5498
  c5499
  c550
  c5500
  c5501
  c5502
  c5503
  c5504
  c5505
  c5506
  c5507
  c5508
  c5509
  c551
  c5510
  c5511
  c5512
  c5513
  c5514
  c5515
  c5516
  c5517
  c5518
  c5526
  c5527
  c553
  c554
  c5540
  c5544
  c5548
  c5552
  c5556
  c556
  c5560
  c5564
  c5568
  c557
  c5572
  c5576
  c5580
  c5584
  c5588
  c559
  c5592
  c5596
  c560
  c5600
  c5604
  c5608
  c562
  c563
  c565
  c566
  c568
  c569
  c57
  c5705
  c5707
  c5709
  c5711
  c5713
  c5715
  c5717
  c5723
  c5727
  c5729
  c5731
  c5733
  c5735
  c5737
  c5739
  c5741
  c5742
  c5750
  c5751
  c5752
  c5753
  c5754
  c5755
  c5756
  c5757
  c5758
  c5759
  c5760
  c5761
  c5762
  c5763
  c5764
  c5765
  c5766
  c5767
  c5768
  c5769
  c5770
  c5771
  c5772
  c5773
  c5774
  c5775
  c5776
  c5777
  c5778
  c5779
  c578
  c5783
  c5787
  c5791
  c5795
  c5799
  c580
  c5803
  c5807
  c581
  c5811
  c5815
  c5819
  c5823
  c5827
  c5831
  c5835
  c5839
  c5843
  c5845
  c5846
  c5855
  c5858
  c5865
  c5866
  c5874
  c5876
  c5877
  c5879
  c5880
  c5885
  c5889
  c5894
  c5897
  c5903
  c5904
  c5906
  c5907
  c5908
  c5909
  c591
  c5912
  c5913
  c5914
  c5915
  c5916
  c5917
  c5918
  c5919
  c5920
  c5921
  c5922
  c5923
  c5924
  c5925
  c5926
  c5927
  c5928
  c5929
  c5930
  c5931
  c5932
  c5933
  c5934
  c5935
  c5936
  c594
  c5944
  c5945
  c5954
  c5957
  c5964
  c5965
  c5973
  c5975
  c5976
  c5978
  c5979
  c5985
  c5988
  c5994
  c5995
  c5997
  c5998
  c5999
  c6
  c600
  c6000
  c6003
  c6004
  c6005
  c6006
  c6007
  c6008
  c6009
  c6010
  c6011
  c6012
  c6013
  c6014
  c6015
  c6016
  c6017
  c6018
  c6019
  c6020
  c6021
  c6022
  c6023
  c6024
  c6025
  c6026
  c6027
  c6035
  c6036
  c604
  c6045
  c6048
  c6055
  c6056
  c6064
  c6066
  c6067
  c6068
  c6069
  c607
  c6070
  c6076
  c6079
  c6085
  c6086
  c6088
  c6089
  c609
  c6090
  c6091
  c6094
  c6095
  c6096
  c6097
  c6098
  c6099
  c61
  c6100
  c6101
  c6102
  c6103
  c6104
  c6105
  c6106
  c6107
  c6108
  c6109
  c6110
  c6111
  c6112
  c6113
  c6114
  c6115
  c6116
  c6117
  c6118
  c612
  c6126
  c6127
  c6136
  c6139
  c6146
  c6147
  c6155
  c6157
  c6158
  c616
  c6160
  c6161
  c6167
  c6170
  c6176
  c6177
  c6179
  c6180
  c6181
  c6182
  c6185
  c6186
  c6187
  c6188
  c6189
  c6190
  c6191
  c6192
  c6193
  c6194
  c6195
  c6196
  c6197
  c6198
  c6199
  c6200
  c6201
  c6202
  c6203
  c6204
  c6205
  c6206
  c6207
  c6208
  c6209
  c621
  c6217
  c6218
  c622
  c6227
  c6230
  c6237
  c6238
  c6246
  c6248
  c6249
  c6250
  c6251
  c6252
  c6258
  c6261
  c6267
  c6268
  c6270
  c6271
  c6272
  c6273
  c6276
  c6277
  c6278
  c6279
  c6280
  c6281
  c6282
  c6283
  c6284
  c6285
  c6286
  c6287
  c6288
  c6289
  c629
  c6290
  c6291
  c6292
  c6293
  c6294
  c6295
  c6296
  c6297
  c6298
  c6299
  c6300
  c6308
  c6309
  c631
  c6318
  c6321
  c6328
  c6329
  c6337
  c6339
  c6340
  c6341
  c6342
  c6343
  c6349
  c6352
  c6358
  c6359
  c6361
  c6362
  c6363
  c6364
  c6367
  c6368
  c6369
  c637
  c6370
  c6371
  c6372
  c6373
  c6374
  c6375
  c6376
  c6377
  c6378
  c6379
  c638
  c6380
  c6381
  c6382
  c6383
  c6384
  c6385
  c6386
  c6387
  c6388
  c6389
  c639
  c6390
  c6391
  c6399
  c6400
  c6409
  c641
  c6412
  c6419
  c642
  c6420
  c6428
  c6430
  c6431
  c6433
  c6434
  c644
  c6440
  c6443
  c6449
  c645
  c6450
  c6452
  c6453
  c6454
  c6455
  c6458
  c6459
  c6460
  c6461
  c6462
  c6463
  c6464
  c6465
  c6466
  c6467
  c6468
  c6469
  c647
  c6470
  c6471
  c6472
  c6473
  c6474
  c6475
  c6476
  c6477
  c6478
  c6479
  c648
  c6480
  c6481
  c6482
  c6490
  c6491
  c65
  c650
  c6500
  c6502
  c651
  c6510
  c6511
  c6519
  c6521
  c6522
  c6524
  c6525
  c653
  c6531
  c6534
  c654
  c6540
  c6541
  c6543
  c6544
  c6545
  c6546
  c6549
  c6550
  c6551
  c6552
  c6553
  c6554
  c6555
  c6556
  c6557
  c6558
  c6559
  c656
  c6560
  c6561
  c6562
  c6563
  c6564
  c6565
  c6566
  c6567
  c6568
  c6569
  c657
  c6570
  c6571
  c6572
  c6573
  c6581
  c6582
  c659
  c6591
  c6594
  c660
  c6601
  c6602
  c6610
  c6612
  c6613
  c6615
  c6616
  c6622
  c6625
  c6631
  c6632
  c6634
  c6635
  c6636
  c6637
  c6640
  c6641
  c6642
  c6643
  c6644
  c6645
  c6646
  c6647
  c6648
  c6649
  c6650
  c6651
  c6652
  c6653
  c6654
  c6655
  c6656
  c6657
  c6658
  c6659
  c6660
  c6661
  c6662
  c6663
  c6664
  c6672
  c6673
  c6686
  c669
  c6690
  c6694
  c6698
  c670
  c6702
  c6706
  c6710
  c6714
  c6718
  c672
  c6722
  c6726
  c6730
  c6734
  c6738
  c6742
  c6746
  c6750
  c6754
  c682
  c685
  c6851
  c6853
  c6855
  c6857
  c6859
  c6861
  c6863
  c6865
  c6866
  c6873
  c6875
  c6877
  c6879
  c6881
  c6883
  c6885
  c6887
  c6888
  c6896
  c6897
  c6898
  c6899
  c69
  c6900
  c6901
  c6902
  c6903
  c6904
  c6905
  c6906
  c6907
  c6908
  c6909
  c691
  c6910
  c6911
  c6912
  c6913
  c6914
  c6915
  c6916
  c6917
  c6918
  c6919
  c6920
  c6921
  c6922
  c6923
  c6924
  c6925
  c6929
  c6933
  c6937
  c6941
  c6945
  c6949
  c695
  c6953
  c6957
  c6961
  c6965
  c6969
  c6973
  c6977
  c698
  c6981
  c6985
  c6989
  c6992
  c700
  c7001
  c701
  c7011
  c7020
  c7022
  c7023
  c7026
  c7031
  c7035
  c7040
  c7049
  c7052
  c7053
  c7054
  c7055
  c7058
  c7059
  c7060
  c7061
  c7062
  c7063
  c7064
  c7065
  c7066
  c7067
  c7068
  c7069
  c707
  c7070
  c7071
  c7072
  c7073
  c7074
  c7075
  c7076
  c7077
  c7078
  c7079
  c7080
  c7081
  c7082
  c7091
  c7100
  c7110
  c7119
  c712
  c7121
  c7122
  c7125
  c713
  c7131
  c7143
  c7144
  c7145
  c7146
  c7149
  c7150
  c7151
  c7152
  c7153
  c7154
  c7155
  c7156
  c7157
  c7158
  c7159
  c7160
  c7161
  c7162
  c7163
  c7164
  c7165
  c7166
  c7167
  c7168
  c7169
  c7170
  c7171
  c7172
  c7173
  c7182
  c7191
  c720
  c7201
  c7210
  c7212
  c7213
  c7216
  c722
  c7222
  c7234
  c7235
  c7236
  c7237
  c7240
  c7241
  c7242
  c7243
  c7244
  c7245
  c7246
  c7247
  c7248
  c7249
  c7250
  c7251
  c7252
  c7253
  c7254
  c7255
  c7256
  c7257
  c7258
  c7259
  c7260
  c7261
  c7262
  c7263
  c7264
  c7273
  c728
  c7282
  c729
  c7292
  c73
  c730
  c7301
  c7303
  c7304
  c7307
  c7313
  c732
  c7325
  c7326
  c7327
  c7328
  c733
  c7331
  c7332
  c7333
  c7334
  c7335
  c7336
  c7337
  c7338
  c7339
  c7340
  c7341
  c7342
  c7343
  c7344
  c7345
  c7346
  c7347
  c7348
  c7349
  c735
  c7350
  c7351
  c7352
  c7353
  c7354
  c7355
  c736
  c7364
  c7373
  c738
  c7383
  c739
  c7392
  c7394
  c7395
  c7398
  c7404
  c741
  c7416
  c7417
  c7418
  c7419
  c742
  c7422
  c7423
  c7424
  c7425
  c7426
  c7427
  c7428
  c7429
  c7430
  c7431
  c7432
  c7433
  c7434
  c7435
  c7436
  c7437
  c7438
  c7439
  c744
  c7440
  c7441
  c7442
  c7443
  c7444
  c7445
  c7446
  c745
  c7455
  c7464
  c747
  c7474
  c748
  c7483
  c7485
  c7486
  c7489
  c7495
  c750
  c7507
  c7508
  c7509
  c751
  c7510
  c7513
  c7514
  c7515
  c7516
  c7517
  c7518
  c7519
  c7520
  c7521
  c7522
  c7523
  c7524
  c7525
  c7526
  c7527
  c7528
  c7529
  c7530
  c7531
  c7532
  c7533
  c7534
  c7535
  c7536
  c7537
  c7546
  c7555
  c7565
  c7574
  c7576
  c7577
  c7580
  c7586
  c7598
  c7599
  c760
  c7600
  c7601
  c7604
  c7605
  c7606
  c7607
  c7608
  c7609
  c761
  c7610
  c7611
  c7612
  c7613
  c7614
  c7615
  c7616
  c7617
  c7618
  c7619
  c7620
  c7621
  c7622
  c7623
  c7624
  c7625
  c7626
  c7627
  c7628
  c763
  c7637
  c7646
  c7656
  c7665
  c7667
  c7668
  c7670
  c7671
  c7677
  c7689
  c7690
  c7691
  c7692
  c7695
  c7696
  c7697
  c7698
  c7699
  c77
  c7700
  c7701
  c7702
  c7703
  c7704
  c7705
  c7706
  c7707
  c7708
  c7709
  c7710
  c7711
  c7712
  c7713
  c7714
  c7715
  c7716
  c7717
  c7718
  c7719
  c7728
  c773
  c7737
  c7747
  c7756
  c7758
  c7759
  c776
  c7762
  c7768
  c7780
  c7781
  c7782
  c7783
  c7786
  c7787
  c7788
  c7789
  c7790
  c7791
  c7792
  c7793
  c7794
  c7795
  c7796
  c7797
  c7798
  c7799
  c7800
  c7801
  c7802
  c7803
  c7804
  c7805
  c7806
  c7807
  c7808
  c7809
  c7810
  c7818
  c7819
  c782
  c7832
  c7836
  c7840
  c7844
  c7848
  c7852
  c7856
  c786
  c7860
  c7864
  c7868
  c7872
  c7876
  c7880
  c7884
  c7888
  c789
  c7892
  c7896
  c7900
  c791
  c792
  c798
  c7997
  c7999
  c8001
  c8003
  c8005
  c8007
  c8009
  c8011
  c8012
  c8019
  c8021
  c8023
  c8025
  c8027
  c8029
  c803
  c8031
  c8033
  c8034
  c804
  c8042
  c8043
  c8044
  c8045
  c8046
  c8047
  c8048
  c8049
  c8050
  c8051
  c8052
  c8053
  c8054
  c8055
  c8056
  c8057
  c8058
  c8059
  c8060
  c8061
  c8062
  c8063
  c8064
  c8065
  c8066
  c8067
  c8068
  c8069
  c8070
  c8071
  c8075
  c8079
  c8083
  c8087
  c8091
  c8095
  c8099
  c81
  c8103
  c8107
  c811
  c8111
  c8115
  c8119
  c8123
  c8127
  c813
  c8131
  c8135
  c8138
  c8147
  c8157
  c8166
  c8168
  c8177
  c8181
  c8186
  c819
  c8198
  c8199
  c820
  c8200
  c8201
  c8204
  c8205
  c8206
  c8207
  c8208
  c8209
  c821
  c8210
  c8211
  c8212
  c8213
  c8214
  c8215
  c8216
  c8217
  c8218
  c8219
  c8220
  c8221
  c8222
  c8223
  c8224
  c8225
  c8226
  c8227
  c8228
  c823
  c8237
  c824
  c8246
  c8256
  c826
  c8265
  c8267
  c827
  c8277
  c8289
  c829
  c8290
  c8291
  c8292
  c8295
  c8296
  c8297
  c8298
  c8299
  c830
  c8300
  c8301
  c8302
  c8303
  c8304
  c8305
  c8306
  c8307
  c8308
  c8309
  c8310
  c8311
  c8312
  c8313
  c8314
  c8315
  c8316
  c8317
  c8318
  c8319
  c832
  c8328
  c833
  c8337
  c8347
  c835
  c8356
  c8358
  c836
  c8368
  c838
  c8380
  c8381
  c8382
  c8383
  c8386
  c8387
  c8388
  c8389
  c839
  c8390
  c8391
  c8392
  c8393
  c8394
  c8395
  c8396
  c8397
  c8398
  c8399
  c8400
  c8401
  c8402
  c8403
  c8404
  c8405
  c8406
  c8407
  c8408
  c8409
  c841
  c8410
  c8419
  c842
  c8428
  c8438
  c8447
  c8449
  c8459
  c8471
  c8472
  c8473
  c8474
  c8477
  c8478
  c8479
  c8480
  c8481
  c8482
  c8483
  c8484
  c8485
  c8486
  c8487
  c8488
  c8489
  c8490
  c8491
  c8492
  c8493
  c8494
  c8495
  c8496
  c8497
  c8498
  c8499
  c85
  c8500
  c8501
  c851
  c8510
  c8519
  c852
  c8529
  c8538
  c854
  c8540
  c8550
  c8562
  c8563
  c8564
  c8565
  c8568
  c8569
  c8570
  c8571
  c8572
  c8573
  c8574
  c8575
  c8576
  c8577
  c8578
  c8579
  c8580
  c8581
  c8582
  c8583
  c8584
  c8585
  c8586
  c8587
  c8588
  c8589
  c8590
  c8591
  c8592
  c8601
  c8610
  c8620
  c8629
  c8631
  c864
  c8641
  c8653
  c8654
  c8655
  c8656
  c8659
  c8660
  c8661
  c8662
  c8663
  c8664
  c8665
  c8666
  c8667
  c8668
  c8669
  c867
  c8670
  c8671
  c8672
  c8673
  c8674
  c8675
  c8676
  c8677
  c8678
  c8679
  c8680
  c8681
  c8682
  c8683
  c8692
  c8701
  c8711
  c8720
  c8722
  c873
  c8732
  c8744
  c8745
  c8746
  c8747
  c8750
  c8751
  c8752
  c8753
  c8754
  c8755
  c8756
  c8757
  c8758
  c8759
  c8760
  c8761
  c8762
  c8763
  c8764
  c8765
  c8766
  c8767
  c8768
  c8769
  c877
  c8770
  c8771
  c8772
  c8773
  c8774
  c8783
  c8792
  c880
  c8802
  c8811
  c8813
  c882
  c8823
  c883
  c8835
  c8836
  c8837
  c8838
  c8841
  c8842
  c8843
  c8844
  c8845
  c8846
  c8847
  c8848
  c8849
  c8850
  c8851
  c8852
  c8853
  c8854
  c8855
  c8856
  c8857
  c8858
  c8859
  c8860
  c8861
  c8862
  c8863
  c8864
  c8865
  c8874
  c8883
  c889
  c8893
  c89
  c8902
  c8904
  c8914
  c8926
  c8927
  c8928
  c8929
  c8932
  c8933
  c8934
  c8935
  c8936
  c8937
  c8938
  c8939
  c894
  c8940
  c8941
  c8942
  c8943
  c8944
  c8945
  c8946
  c8947
  c8948
  c8949
  c895
  c8950
  c8951
  c8952
  c8953
  c8954
  c8955
  c8956
  c8964
  c8965
  c8978
  c8982
  c8986
  c8990
  c8994
  c8998
  c9002
  c9006
  c9010
  c9014
  c9018
  c902
  c9022
  c9026
  c9030
  c9034
  c9038
  c904
  c9042
  c9046
  c910
  c911
  c912
  c914
  c9143
  c9145
  c9147
  c9149
  c915
  c9151
  c9153
  c9155
  c9161
  c9165
  c9167
  c9169
  c917
  c9171
  c9173
  c9175
  c9177
  c9179
  c918
  c9180
  c9188
  c9189
  c9190
  c9191
  c9192
  c9193
  c9194
  c9195
  c9196
  c9197
  c9198
  c9199
  c920
  c9200
  c9201
  c9202
  c9203
  c9204
  c9205
  c9206
  c9207
  c9208
  c9209
  c921
  c9210
  c9211
  c9212
  c9213
  c9214
  c9215
  c9216
  c9217
  c9221
  c9225
  c9229
  c923
  c9233
  c9237
  c924
  c9241
  c9245
  c9249
  c9253
  c9257
  c926
  c9261
  c9265
  c9269
  c927
  c9273
  c9277
  c9281
  c9283
  c929
  c9293
  c93
  c930
  c9303
  c9312
  c932
  c9323
  c9327
  c933
  c9332
  c9344
  c9345
  c9346
  c9347
  c9350
  c9351
  c9352
  c9354
  c9355
  c9357
  c9358
  c9360
  c9361
  c9363
  c9364
  c9366
  c9367
  c9369
  c9370
  c9372
  c9373
  c9382
  c9392
  c9402
  c9411
  c942
  c9423
  c943
  c9435
  c9436
  c9437
  c9438
  c9441
  c9442
  c9443
  c9445
  c9446
  c9448
  c9449
  c9451
  c9452
  c9454
  c9455
  c9457
  c9458
  c9460
  c9461
  c9463
  c9464
  c9473
  c9483
  c9493
  c9502
  c9514
  c9526
  c9527
  c9528
  c9529
  c9532
  c9533
  c9534
  c9536
  c9537
  c9539
  c9540
  c9542
  c9543
  c9545
  c9546
  c9548
  c9549
  c9551
  c9552
  c9554
  c9555
  c956
  c9564
  c9574
  c9584
  c9593
  c960
  c9605
  c9617
  c9618
  c9619
  c9620
  c9623
  c9624
  c9625
  c9627
  c9628
  c9630
  c9631
  c9633
  c9634
  c9636
  c9637
  c9639
  c964
  c9640
  c9642
  c9643
  c9645
  c9646
  c9655
  c9665
  c9675
  c968
  c9684
  c9696
  c97
  c9708
  c9709
  c9710
  c9711
  c9714
  c9715
  c9716
  c9718
  c9719
  c972
  c9721
  c9722
  c9724
  c9725
  c9727
  c9728
  c9730
  c9731
  c9733
  c9734
  c9736
  c9737
  c9746
  c9756
  c976
  c9766
  c9775
  c9787
  c9799
  c980
  c9800
  c9801
  c9802
  c9805
  c9806
  c9807
  c9809
  c9810
  c9812
  c9813
  c9815
  c9816
  c9818
  c9819
  c9821
  c9822
  c9824
  c9825
  c9827
  c9828
  c9837
  c984
  c9847
  c9857
  c9866
  c9878
  c988
  c9890
  c9891
  c9892
  c9893
  c9896
  c9897
  c9898
  c9900
  c9901
  c9903
  c9904
  c9906
  c9907
  c9909
  c9910
  c9912
  c9913
  c9915
  c9916
  c9918
  c9919
  c992
  c9928
  c9938
  c9948
  c9957
  c996
  c9969
  c9981
  c9982
  c9983
  c9984
  c9987
  c9988
  c9989
  c9991
  c9992
  c9994
  c9995
  c9997
  c9998 )
